Clp0006I 0  Obj 0 Primal inf 199.99998 (200) Dual inf 2530630.6 (10000)
Clp0006I 167  Obj -49230.989 Primal inf 35.999997 (34)
Clp0006I 235  Obj -49148.536 Primal inf 3.9999996 (4)
Clp0006I 252  Obj -49144.15
Clp0000I Optimal - objective value -49144.15
Clp0000I Optimal - objective value -49144.15
Node 0 depth 0 unsatisfied 0 sum 0 obj -49144.1 guess -49144.1 branching on -1
Clp0000I Optimal - objective value -49144.15
Cbc0004I Integer solution of -49144.15 found after 0 iterations and 0 nodes (0.03 seconds)
Cbc0001I Search completed - best objective -49144.14999999999, took 0 iterations and 0 nodes (0.03 seconds)
Cbc0035I Maximum depth 0, 0 variables fixed on reduced cost
Clp0000I Optimal - objective value -49144.15
Clp0000I Optimal - objective value -49144.15
x_3 = 1
x_168 = 1
x_235 = 1
x_395 = 1
x_447 = 1
x_550 = 1
x_698 = 1
x_782 = 1
x_830 = 1
x_979 = 1
x_1023 = 1
x_1127 = 1
x_1259 = 1
x_1391 = 1
x_1472 = 1
x_1543 = 1
x_1604 = 1
x_1765 = 1
x_1876 = 1
x_1931 = 1
x_2025 = 1
x_2155 = 1
x_2214 = 1
x_2326 = 1
x_2436 = 1
x_2589 = 1
x_2646 = 1
x_2778 = 1
x_2856 = 1
x_2961 = 1
x_3001 = 1
x_3192 = 1
x_3217 = 1
x_3313 = 1
x_3448 = 1
x_3549 = 1
x_3605 = 1
x_3707 = 1
x_3838 = 1
x_3954 = 1
x_4042 = 1
x_4111 = 1
x_4233 = 1
x_4337 = 1
x_4408 = 1
x_4500 = 1
x_4677 = 1
x_4709 = 1
x_4880 = 1
x_4934 = 1
x_5063 = 1
x_5183 = 1
x_5253 = 1
x_5387 = 1
x_5424 = 1
x_5522 = 1
x_5621 = 1
x_5766 = 1
x_5888 = 1
x_5910 = 1
x_6002 = 1
x_6175 = 1
x_6240 = 1
x_6344 = 1
x_6464 = 1
x_6519 = 1
x_6615 = 1
x_6741 = 1
x_6894 = 1
x_6973 = 1
x_7071 = 1
x_7128 = 1
x_7285 = 1
x_7386 = 1
x_7462 = 1
x_7512 = 1
x_7674 = 1
x_7796 = 1
x_7806 = 1
x_7993 = 1
x_8058 = 1
x_8169 = 1
x_8284 = 1
x_8397 = 1
x_8457 = 1
x_8551 = 1
x_8699 = 1
x_8732 = 1
x_8820 = 1
x_8916 = 1
x_9018 = 1
x_9145 = 1
x_9229 = 1
x_9370 = 1
x_9490 = 1
x_9552 = 1
x_9660 = 1
x_9767 = 1
x_9839 = 1
x_9981 = 1
real 0m0,084s user 0m0,072s sys 0m0,012s
